37014
1 0 1 0 0 1 0 1 0 0 0 1 1 0 1 1 0 1 0 0 1 0 0 0 0 0 0 1 0 0 
20 11 20 11 20 11 11 11 20 11 11 20 20 20 11 20 11 11 11 11 11 11 11 11 11 20 11 11 11 11 11 11 20 11 20 20 11 15 20 20 11 20 15 20 15 20 20 20 27 20 27 20 20 27 20 20 20 27 27 20 0 0 20 27 0 0 27 0 27 27 0 0 0 0 15 0 15 20 0 27 0 0 0 0 0 0 0 0 0 27 27 15 0 27 27 27 27 27 27 15 27 17 17 17 17 17 17 17 17 17 17 17 2 2 2 2 2 15 2 2 2 2 2 2 15 15 15 15 15 12 7 7 7 12 7 7 7 7 7 7 7 7 7 14 14 7 14 5 14 5 
